50, 2476273
100016, 906
100093, 687
100087, 767
100069, 905
100100, 260
100058, 636
100034, 905
100011, 873
100061, 573
100052, 170
100044, 412
100100, 994
100084, 104
100011, 320
100089, 951
100000, 450
100065, 209
100031, 317
100073, 909
100096, 336
100053, 428
100077, 628
100005, 806
100067, 493
100011, 82
100045, 574
100033, 36
100007, 95
100075, 191
100009, 694
100025, 284
100008, 691
100066, 164
100030, 118
100004, 24
100002, 706
100022, 860
100051, 220
100001, 238
100002, 13
100067, 645
100053, 301
100013, 137
100031, 647
100012, 600
100027, 448
100039, 154
100022, 639
100019, 556
100022, 433
